NAME : Problem-4-10-C
TYPE : HVRP
DIMENSION : 11
EDGE_WEIGHT_TYPE : EUC_2D

NODE_COORD_SECTION
1 30 40
2 37 52
4 52 64
6 40 30
8 17 63
9 31 62
12 42 41
17 52 41
19 17 33
21 57 58

DEMAND_SECTION
1 0
2 7
4 16
6 21
8 19
9 23
12 19
17 15
19 41
21 28

VEHICLE_TYPES
# id capacity fixed_cost var_cost
A 60  1000 1 
B 80  1500 1 
C 150 3000 1 
END_VEHICLE_TYPES

DEPOT_SECTION
1
-1
EOF
